k = 56;
b = 25;
AtomicConstraints =  [|
1, 55|
	1, 56|
	2, 55|
	2, 56|
	3, 55|
	3, 56|
	7, 46|
	7, 55|
	7, 43|
	7, 56|
	8, 46|
	8, 55|
	8, 43|
	8, 56|
	9, 46|
	9, 55|
	9, 43|
	9, 56|
	10, 1|
	10, 2|
	10, 3|
	10, 4|
	10, 5|
	10, 6|
	10, 11|
	10, 13|
	10, 18|
	10, 21|
	10, 22|
	10, 23|
	10, 46|
	10, 55|
	10, 56|
	11, 1|
	11, 2|
	11, 3|
	11, 4|
	11, 5|
	11, 6|
	11, 18|
	11, 21|
	11, 22|
	11, 55|
	11, 56|
	12, 1|
	12, 2|
	12, 3|
	12, 4|
	12, 5|
	12, 6|
	12, 11|
	12, 13|
	12, 14|
	12, 18|
	12, 21|
	12, 22|
	12, 55|
	12, 56|
	13, 1|
	13, 2|
	13, 3|
	13, 4|
	13, 5|
	13, 6|
	13, 18|
	13, 21|
	13, 55|
	13, 56|
	51, 1|
	51, 2|
	51, 3|
	51, 4|
	51, 5|
	51, 6|
	51, 11|
	51, 13|
	51, 14|
	51, 18|
	51, 21|
	51, 22|
	51, 55|
	51, 56|
	14, 1|
	14, 2|
	14, 3|
	14, 4|
	14, 5|
	14, 6|
	14, 18|
	14, 21|
	14, 55|
	14, 56|
	52, 1|
	52, 2|
	52, 3|
	52, 18|
	52, 29|
	52, 34|
	52, 31|
	52, 21|
	52, 22|
	52, 23|
	52, 32|
	52, 33|
	52, 30|
	52, 46|
	52, 55|
	52, 56|
	15, 1|
	15, 2|
	15, 3|
	15, 18|
	15, 29|
	15, 34|
	15, 31|
	15, 21|
	15, 22|
	15, 23|
	15, 32|
	15, 33|
	15, 30|
	15, 46|
	15, 55|
	15, 56|
	16, 1|
	16, 2|
	16, 3|
	16, 18|
	16, 29|
	16, 34|
	16, 31|
	16, 21|
	16, 22|
	16, 23|
	16, 32|
	16, 33|
	16, 30|
	16, 46|
	16, 55|
	16, 56|
	17, 1|
	17, 2|
	17, 3|
	17, 4|
	17, 18|
	17, 29|
	17, 34|
	17, 31|
	17, 21|
	17, 22|
	17, 23|
	17, 32|
	17, 33|
	17, 30|
	17, 46|
	17, 55|
	17, 56|
	18, 55|
	29, 18|
	29, 21|
	29, 22|
	29, 23|
	29, 46|
	29, 55|
	29, 56|
	34, 18|
	34, 29|
	34, 21|
	34, 22|
	34, 23|
	34, 32|
	34, 46|
	34, 55|
	34, 56|
	31, 18|
	31, 29|
	31, 34|
	31, 21|
	31, 22|
	31, 23|
	31, 32|
	31, 33|
	31, 46|
	31, 55|
	31, 56|
	26, 18|
	26, 29|
	26, 34|
	26, 31|
	26, 21|
	26, 22|
	26, 23|
	26, 32|
	26, 33|
	26, 30|
	26, 46|
	26, 55|
	26, 56|
	27, 18|
	27, 29|
	27, 34|
	27, 31|
	27, 26|
	27, 21|
	27, 22|
	27, 23|
	27, 32|
	27, 33|
	27, 30|
	27, 46|
	27, 55|
	27, 43|
	27, 56|
	28, 18|
	28, 29|
	28, 34|
	28, 31|
	28, 26|
	28, 27|
	28, 21|
	28, 22|
	28, 23|
	28, 32|
	28, 33|
	28, 30|
	28, 46|
	28, 55|
	28, 43|
	28, 56|
	19, 18|
	19, 29|
	19, 34|
	19, 31|
	19, 26|
	19, 27|
	19, 28|
	19, 21|
	19, 22|
	19, 23|
	19, 32|
	19, 33|
	19, 30|
	19, 24|
	19, 46|
	19, 55|
	19, 43|
	19, 56|
	20, 18|
	20, 29|
	20, 34|
	20, 31|
	20, 26|
	20, 27|
	20, 28|
	20, 19|
	20, 21|
	20, 22|
	20, 23|
	20, 32|
	20, 33|
	20, 30|
	20, 24|
	20, 46|
	20, 55|
	20, 43|
	20, 56|
	41, 18|
	41, 29|
	41, 34|
	41, 31|
	41, 26|
	41, 27|
	41, 28|
	41, 19|
	41, 20|
	41, 21|
	41, 22|
	41, 23|
	41, 32|
	41, 33|
	41, 30|
	41, 24|
	41, 25|
	41, 46|
	41, 55|
	41, 43|
	41, 56|
	36, 18|
	36, 29|
	36, 34|
	36, 31|
	36, 26|
	36, 27|
	36, 28|
	36, 19|
	36, 20|
	36, 41|
	36, 21|
	36, 22|
	36, 23|
	36, 32|
	36, 33|
	36, 30|
	36, 24|
	36, 25|
	36, 42|
	36, 46|
	36, 55|
	36, 43|
	36, 56|
	39, 18|
	39, 29|
	39, 34|
	39, 31|
	39, 26|
	39, 27|
	39, 28|
	39, 19|
	39, 20|
	39, 41|
	39, 36|
	39, 21|
	39, 22|
	39, 23|
	39, 32|
	39, 33|
	39, 30|
	39, 24|
	39, 25|
	39, 42|
	39, 35|
	39, 46|
	39, 55|
	39, 43|
	39, 56|
	37, 18|
	37, 29|
	37, 34|
	37, 31|
	37, 26|
	37, 27|
	37, 28|
	37, 19|
	37, 20|
	37, 41|
	37, 36|
	37, 39|
	37, 21|
	37, 22|
	37, 23|
	37, 32|
	37, 33|
	37, 30|
	37, 24|
	37, 25|
	37, 42|
	37, 35|
	37, 38|
	37, 46|
	37, 55|
	37, 43|
	37, 56|
	21, 55|
	22, 18|
	22, 21|
	22, 55|
	23, 18|
	23, 21|
	23, 22|
	23, 55|
	32, 18|
	32, 21|
	32, 22|
	32, 23|
	32, 46|
	32, 55|
	32, 56|
	33, 18|
	33, 29|
	33, 21|
	33, 22|
	33, 23|
	33, 32|
	33, 46|
	33, 55|
	33, 56|
	30, 18|
	30, 29|
	30, 34|
	30, 21|
	30, 22|
	30, 23|
	30, 32|
	30, 33|
	30, 46|
	30, 55|
	30, 56|
	24, 18|
	24, 29|
	24, 34|
	24, 31|
	24, 26|
	24, 27|
	24, 21|
	24, 22|
	24, 23|
	24, 32|
	24, 33|
	24, 30|
	24, 46|
	24, 55|
	24, 43|
	24, 56|
	25, 18|
	25, 29|
	25, 34|
	25, 31|
	25, 26|
	25, 27|
	25, 28|
	25, 19|
	25, 21|
	25, 22|
	25, 23|
	25, 32|
	25, 33|
	25, 30|
	25, 24|
	25, 46|
	25, 55|
	25, 43|
	25, 56|
	42, 18|
	42, 29|
	42, 34|
	42, 31|
	42, 26|
	42, 27|
	42, 28|
	42, 19|
	42, 20|
	42, 21|
	42, 22|
	42, 23|
	42, 32|
	42, 33|
	42, 30|
	42, 24|
	42, 25|
	42, 46|
	42, 55|
	42, 43|
	42, 56|
	35, 18|
	35, 29|
	35, 34|
	35, 31|
	35, 26|
	35, 27|
	35, 28|
	35, 19|
	35, 20|
	35, 41|
	35, 21|
	35, 22|
	35, 23|
	35, 32|
	35, 33|
	35, 30|
	35, 24|
	35, 25|
	35, 42|
	35, 46|
	35, 55|
	35, 43|
	35, 56|
	38, 18|
	38, 29|
	38, 34|
	38, 31|
	38, 26|
	38, 27|
	38, 28|
	38, 19|
	38, 20|
	38, 41|
	38, 36|
	38, 21|
	38, 22|
	38, 23|
	38, 32|
	38, 33|
	38, 30|
	38, 24|
	38, 25|
	38, 42|
	38, 35|
	38, 46|
	38, 55|
	38, 43|
	38, 56|
	40, 18|
	40, 29|
	40, 34|
	40, 31|
	40, 26|
	40, 27|
	40, 28|
	40, 19|
	40, 20|
	40, 41|
	40, 36|
	40, 39|
	40, 21|
	40, 22|
	40, 23|
	40, 32|
	40, 33|
	40, 30|
	40, 24|
	40, 25|
	40, 42|
	40, 35|
	40, 38|
	40, 46|
	40, 55|
	40, 43|
	40, 56|
	53, 7|
	53, 8|
	53, 49|
	53, 46|
	53, 55|
	53, 43|
	53, 56|
	49, 7|
	49, 8|
	49, 46|
	49, 55|
	49, 43|
	49, 56|
	54, 7|
	54, 8|
	54, 9|
	54, 46|
	54, 55|
	54, 43|
	54, 56|
	43, 46|
	43, 55|
	56, 46|
	56, 55|
	48, 47|
	44, 47|
	44, 48|
	50, 47|
	50, 48|
	50, 44|
	45, 47|
	45, 48|
	45, 44|
	45, 50|];
DisjunctiveConstraints =  [|2, 3, 2, 1|
	5, 6, 5, 4|
	8, 9, 8, 7|
	8, 46, 8, 21|
	12, 51, 12, 10|
	13, 14, 13, 11|
	15, 16, 15, 52|
	16, 17, 16, 15|
	17, 4, 29, 17|
	39, 43, 39, 18|
	37, 43, 37, 18|
	24, 22, 24, 47|
	25, 22, 25, 47|
	25, 23, 25, 48|
	42, 22, 42, 47|
	42, 23, 42, 48|
	35, 22, 35, 47|
	35, 23, 35, 48|
	35, 46, 35, 21|
	38, 22, 38, 47|
	38, 23, 38, 48|
	38, 46, 38, 21|
	40, 22, 40, 47|
	40, 23, 40, 48|
	40, 46, 40, 21|
	53, 46, 53, 21|
	53, 43, 53, 18|
	49, 46, 49, 21|];
SoftAtomicConstraints =  [|
2, 1|
3, 2|
5, 4|
6, 5|
8, 7|
9, 8|
12, 10|
13, 11|
51, 12|
14, 13|
16, 15|
17, 16|
18, 21|
28, 24|
20, 25|
31, 30|
29, 32|
34, 33|
36, 35|
39, 38|
37, 40|
41, 42|
56, 43|
55, 46|
54, 49|
15, 52|
1, 56|];
DirectSuccessors =  [];
